(set-logic QF_S)
(declare-fun var0 () String)
(declare-fun var1 () String)
(declare-fun var2 () String)
(declare-fun var3 () String)
(declare-fun var4 () String)
(declare-fun var5 () String)
(declare-fun var6 () String)
(declare-fun var7 () String)
(declare-fun var8 () String)
(declare-fun var9 () String)
(declare-fun var10 () String)
(declare-fun var11 () String)
(declare-fun var12 () String)
(declare-fun var13 () String)
(declare-fun var14 () String)
(declare-fun var15 () String)
(declare-fun var16 () String)
(declare-fun var17 () String)
(declare-fun var18 () String)
(declare-fun var19 () String)
(declare-fun var20 () String)
(declare-fun var21 () String)
(declare-fun var22 () String)
(declare-fun var23 () String)
(declare-fun var24 () String)
(declare-fun var25 () String)
(declare-fun var26 () String)
(declare-fun var27 () String)
(declare-fun var28 () String)
(declare-fun var29 () String)
(declare-fun var30 () String)
(declare-fun var31 () String)
(declare-fun var32 () String)
(declare-fun var33 () String)
(declare-fun var34 () String)
(declare-fun var35 () String)
(declare-fun var36 () String)
(declare-fun var37 () String)
(declare-fun var38 () String)
(declare-fun var39 () String)
(declare-fun var40 () String)
(declare-fun var41 () String)
(declare-fun var42 () String)
(declare-fun var43 () String)
(declare-fun var44 () String)
(declare-fun var45 () String)
(declare-fun var46 () String)
(declare-fun var47 () String)
(declare-fun var48 () String)
(declare-fun var49 () String)
(declare-fun var50 () String)
(declare-fun var51 () String)
(declare-fun var52 () String)
(declare-fun var53 () String)
(declare-fun var54 () String)
(declare-fun var55 () String)
(declare-fun var56 () String)
(declare-fun var57 () String)
(declare-fun var58 () String)
(declare-fun var59 () String)
(declare-fun var60 () String)
(declare-fun var61 () String)
(declare-fun var62 () String)
(declare-fun var63 () String)
(declare-fun var64 () String)
(declare-fun var65 () String)
(declare-fun var66 () String)
(declare-fun var67 () String)
(declare-fun var68 () String)
(declare-fun var69 () String)
(assert (= 40 (str.len var0)))
(assert (= 1 (str.len var1)))
(assert (= 48 (str.len var2)))
(assert (= 53 (str.len var3)))
(assert (= 26 (str.len var4)))
(assert (= 75 (str.len var5)))
(assert (= 54 (str.len var6)))
(assert (= 31 (str.len var7)))
(assert (= 83 (str.len var8)))
(assert (= 80 (str.len var9)))
(assert (= 93 (str.len var10)))
(assert (= 89 (str.len var11)))
(assert (= 82 (str.len var12)))
(assert (= 85 (str.len var13)))
(assert (= 53 (str.len var14)))
(assert (= 40 (str.len var15)))
(assert (= 14 (str.len var16)))
(assert (= 2 (str.len var17)))
(assert (= 26 (str.len var18)))
(assert (= 81 (str.len var19)))
(assert (= 38 (str.len var20)))
(assert (= 9 (str.len var21)))
(assert (= 27 (str.len var22)))
(assert (= 38 (str.len var23)))
(assert (= 10 (str.len var24)))
(assert (= 26 (str.len var25)))
(assert (= 20 (str.len var26)))
(assert (= 30 (str.len var27)))
(assert (= 73 (str.len var28)))
(assert (= 89 (str.len var29)))
(assert (= 99 (str.len var30)))
(assert (= 55 (str.len var31)))
(assert (= 81 (str.len var32)))
(assert (= 41 (str.len var33)))
(assert (= 37 (str.len var34)))
(assert (= 20 (str.len var35)))
(assert (= 30 (str.len var36)))
(assert (= 83 (str.len var37)))
(assert (= 66 (str.len var38)))
(assert (= 63 (str.len var39)))
(assert (= 0 (str.len var40)))
(assert (= 96 (str.len var41)))
(assert (= 16 (str.len var42)))
(assert (= 62 (str.len var43)))
(assert (= 82 (str.len var44)))
(assert (= 79 (str.len var45)))
(assert (= 8 (str.len var46)))
(assert (= 0 (str.len var47)))
(assert (= 39 (str.len var48)))
(assert (= 56 (str.len var49)))
(assert (= 92 (str.len var50)))
(assert (= 34 (str.len var51)))
(assert (= 25 (str.len var52)))
(assert (= 65 (str.len var53)))
(assert (= 69 (str.len var54)))
(assert (= 17 (str.len var55)))
(assert (= 80 (str.len var56)))
(assert (= 87 (str.len var57)))
(assert (= 43 (str.len var58)))
(assert (= 39 (str.len var59)))
(assert (= 17 (str.len var60)))
(assert (= 23 (str.len var61)))
(assert (= 99 (str.len var62)))
(assert (= 41 (str.len var63)))
(assert (= 51 (str.len var64)))
(assert (= 90 (str.len var65)))
(assert (= 37 (str.len var66)))
(assert (= 44 (str.len var67)))
(assert (= 57 (str.len var68)))
(assert (= 61 (str.len var69)))
(assert (= 92 (str.len (str.++ var53 var22))))
(assert (= 63 (str.len (str.++ var58 var26))))
(assert (= 102 (str.len (str.++ var33 var69))))
(assert (= 72 (str.len (str.++ var55 var31))))
(assert (= 62 (str.len (str.++ var3 var21))))
(assert (= 179 (str.len (str.++ var57 var50))))
(assert (= 168 (str.len (str.++ var54 var62))))
(check-sat)